&GLOBAL
  PROJECT H2
  RUN_TYPE ENERGY_FORCE
  PRINT_LEVEL LOW
&END GLOBAL
&FORCE_EVAL
  METHOD Quickstep
    &DFT
      BASIS_SET_FILE_NAME   BASIS_SET 
      POTENTIAL_FILE_NAME   GTH_POTENTIALS
      &MGRID
        NGRIDS 4
        CUTOFF 300
        REL_CUTOFF 60
      &END MGRID
      &XC
        &XC_FUNCTIONAL PADE
        &END XC_FUNCTIONAL
      &END XC
      &SCF
        SCF_GUESS ATOMIC
        EPS_SCF 1.0E-5
        MAX_SCF 300
        &DIAGONALIZATION  ON
          ALGORITHM STANDARD
        &END DIAGONALIZATION
      &END SCF
    &PRINT
     &MULLIKEN 
       FILENAME 
     &END MULLIKEN
    &END PRINT
  &END DFT
  &SUBSYS
    &KIND        H
      ELEMENT    H
      BASIS_SET  DZVP-GTH-PADE
      POTENTIAL  GTH-PADE-q1
    &END KIND
    &CELL
      ABC   10 10 10
    &END CELL
    &TOPOLOGY
      COORD_FILE_FORMAT   XYZ
      COORD_FILE_NAME     H2.xyz
    &END TOPOLOGY
    !&COORD
    !&END COORD
  &END SUBSYS
  &PRINT
    &FORCES
    &END FORCES
  &END PRINT
&END FORCE_EVAL
