&GLOBAL
  PROJECT     H2
  RUN_TYPE    GEO_OPT
  PRINT_LEVEL LOW
&END GLOBAL
&FORCE_EVAL
  METHOD Quickstep
  &DFT
    BASIS_SET_FILE_NAME BASIS_SET
    POTENTIAL_FILE_NAME GTH_POTENTIALS
    &MGRID
      NGRIDS     4
      CUTOFF     300
      REL_CUTOFF 40
    &END MGRID
    &QS
      EPS_DEFAULT 1.0E-7
    &END QS
    &XC
      &XC_FUNCTIONAL  PADE
      &END XC_FUNCTIONAL
    &END XC
    &SCF
      SCF_GUESS  ATOMIC
      EPS_SCF    1.0E-05
      MAX_SCF    100
      &DIAGONALIZATION ON
        ALGORITHM STANDARD
      &END DIAGONALIZATION
    &END SCF
  &END DFT
  &SUBSYS
    &KIND H
     ELEMENT    H
      BASIS_SET DZVP-GTH-PADE
      POTENTIAL GTH-PADE-q1
    &END KIND
    &CELL
      ABC 10 10 10
    &END CELL
    &TOPOLOGY
      COORD_FILE_FORMAT   XYZ
      COORD_FILE_NAME     H2.xyz
    &END TOPOLOGY
  &END SUBSYS
&END FORCE_EVAL
&MOTION
  &GEO_OPT
    TYPE       MINIMIZATION
    MAX_DR     1.0E-03
    MAX_FORCE  1.0E-03
    RMS_DR     1.0E-03
    RMS_FORCE  1.0E-03
    MAX_ITER   200
    OPTIMIZER  CG
    &CG
    &END CG
  &END GEO_OPT
  !&CONSTRAINT
  !  &FIXED_ATOMS
  !    COMPONENTS_TO_FIX  XYZ
  !    LIST               1
  !  &END FIXED_ATOMS
  !&END CONSTRAINT
&END MOTION
